50

98 32 201
98 36 308
96 30 206
95 24 346
94 43 224
93 9 404
92 40 194
91 40 324
89 17 346
88 7 370
88 39 306
88 33 172
86 24 376
83 3 413
83 33 250
82 20 403
80 27 267
79 5 198
78 5 311
76 9 242
76 8 442
75 29 441
73 19 176
67 7 236
63 3 446
63 4 352
62 21 430
55 24 278
54 13 294
53 15 406
52 1 399
51 25 450
51 24 387
51 16 202
47 22 215
45 21 275
45 7 377
42 2 204
42 1 171
40 2 392
37 14 302
37 18 220
36 4 232
36 1 449
29 1 361
29 11 419
25 4 413
24 6 271
20 10 412
20 1 398
